
 102   30
  10   10   10   10   10   10   10   10   10   10   10   10   10   10   10   10   10   10   10   10   10   10   10   10   10   10   10   10   10   10

   0   0   0   0   0   0   0   0   0   0   0   0   0   0   0   0   0   0   0   0   0   0   0   0   0   0   0   0   0   0   0  29 2 3 5 6 7 8 9 10 11 12 13 14 15 16 17 18 20 21 22 23 24 25 30 31 32 36 39 40 45 
   9   0   0   1   1   0   0   2   0   0   0   2   0   0   0   0   0   0   0   0   0   0   0   0   0   0   0   0   0   0   0  10 60 52 44 42 41 35 34 29 28 4 
   5   0   0   0   0   0   0   0   0   0   1   0   1   0   0   1   0   0   0   0   0   0   0   0   0   4   0   0   0   0   0  12 101 62 60 57 54 50 49 46 44 28 26 19 
  10   0   0   0   0   0   0   0   1   0   0   5   6   0   0   0   0   1   0   0   0   0   0   0   0   0   0   0   0   0   0  12 101 100 96 61 58 55 53 49 48 47 37 27 
   8   0   0   0   0   0   0   0   0   0   0   0   0   0   0   0   0   0   0   3   1   0   4   0   2   0   0   0   0   1   0  19 100 99 98 97 90 73 72 71 70 68 65 63 62 56 54 52 44 34 33 
   4   0   0   0   9   0   0   3   0   1   0   0   0   0   0   0   0   0   0   0   0   0   0   0   0   0   0   2   0   0   1  17 101 99 98 73 72 70 68 63 62 61 59 53 52 51 49 48 47 
   9   0   0   0   0   0   0   6   0   0   6   0   0   0   0   0   0   0   0   0   0   0   0   0   4   0   0   3   0   9   0  14 100 97 95 84 67 62 61 60 54 52 49 48 38 37 
   3   0   0   0   6   0   1   0   0   0   0   0   0   0   0   0   0   0   0   0   0   0   0   3   0   0   0   0   0   5   0  11 73 71 70 69 68 53 48 44 43 35 28 
   1   0   1   0   0   0   0   0   8   0   0   0   0   0   0   0   0   0   0   0   0   0   0   0   0   5   0  10   0   0   0  10 101 99 97 84 73 63 54 48 47 19 
  10   0   0   0   0   0   0   0   0   0   0   0   8   0   0   0   0   0   0   0   0   0   0   0   0   0   0   0   0   0   0   8 100 69 67 66 56 52 33 27 
   6   3   0   0   0   4   0   0   9   0   0   0   0   0   0   5   0   0   0   0   0   0   0   4   0   4   0   0   0   0   0  10 100 93 92 71 69 64 58 57 44 27 
   1   0   0   0   0   0   0   0   0   0   7   0   0   0   0   0   0   0   0   0   0   0   0   0   0   0   0   0   0   0   9   9 101 100 97 84 67 63 61 54 19 
  10   9   0   0   0   0   0   7   0   0   0   0   0   0   0   0   0   0   1   5   0   0   0   0   0   0   0   9   0   0   0  14 100 99 92 73 68 67 66 63 62 59 53 52 46 42 
   6   0   0   0   0   0   0   0   0   5   0   8   5   0   0   0   0   0   0   0   0   1   8   0   0   0   0   0   0   0   0  19 99 98 94 93 92 91 88 86 82 73 72 69 68 65 63 61 59 56 55 
   8   0   0   0   5   0   0   0   0   0   0   0   0   0   0   0   0   0   0   0   7   0   6   0   0   0   0   0   0   0   6  11 100 99 98 97 92 71 63 61 57 55 34 
   8   0   0   5   0   5   9   0   0   0   0   0   0   0   0   0   0   0   0   0   0   0   0   0   0   0   1   0   0   0   0  17 98 97 94 92 91 88 77 72 71 70 69 64 63 62 61 57 44 
   6   7   0   0   7   0   0   0   0   0   0   0   0   0   0   0   0   0   4   0   0   0   0   0  10   0   0   8   0   0   3  14 98 97 95 92 91 82 73 72 70 63 57 53 48 47 
   9   0   0   0   0  10   0   0   0   0   0   0   0   0   0   0   3   0   0   0   0   0   0   0   0   0   0   0   0   0   0  20 95 94 93 92 91 90 89 83 82 77 72 71 69 68 67 66 65 63 57 53 
  10   0   0   9   8   0   0   0   0   0   0   0   0   4   0   0   0   5   0   0   0   0   0   0   0   0   0   0   0   0   0  19 98 94 93 92 90 89 88 86 83 82 72 71 70 69 68 66 65 56 51 
  10   0   0   0   0   0   0   0   6   0   0   0   0   0   0   0   0   0   0   0   0   0   5   0   0   0   0   0   0   0   0  19 100 98 97 95 93 92 91 88 87 86 85 84 83 72 71 67 61 56 48 
   1   0   0   0   0   0   0   8   0   0   0   0   6   0   0   0   0   0   0   0   0   0   0   0   0   0   0   0   0   0   0  15 100 99 98 97 96 91 88 86 82 73 67 65 62 55 48 
   2   0   0   0   0   0   0   0   0   0   0   3   0   0   0   0   0   0   0   0   0   6   8   7   5   0   0   0   1   0   0  13 99 94 92 91 88 87 72 65 64 62 59 56 44 
  10   3   7   0   8   0   0   0   0   0   0   0   0   2   0   0   0   0   0   0   7   0   0   0   0   7   0   5   0   0   0  17 94 93 92 91 90 89 83 82 80 77 71 69 67 66 65 63 53 
   6   0   0   0   0   0   0   0   0   0   7   0   9   0   0   0   0   0   0   5   0   0   0   0   0   0   0   0   0   0   0  15 99 97 92 90 89 83 82 77 76 70 68 66 63 53 51 
   4   0   0   0   0   0   0   0   0   0   0   0   0   0   1   0   0   0   0   7   0   0   9   0   0   6   3   0   0   0   0  18 101 98 96 95 94 92 91 90 89 87 83 82 77 72 69 67 65 53 
   3   0   5   0   4   0   0   0   0   0   0   5   0   0   0   0   0   0   0   4   0   0   0   0   0   0   0   0   0   0   0  13 98 95 93 92 87 85 83 82 67 66 65 53 48 
   1   0   0   0   0   0   0   0   0   0   0   0   7  10   0   0   0   0  10   0   0   7   0   9   0   0   0   0   0   0   0  18 99 98 94 90 88 86 84 82 81 78 75 74 73 68 65 63 62 59 
   8   0   0   0   4   8   0   5   0   0   0   0   0   0   0   0   6   0   0   0  10   0   0   0   5   0   0  10   0   8   0  16 99 94 88 86 84 83 82 81 79 75 67 65 64 63 61 59 
   5   0   0   0   0   6   0   0   0   0   0   0   0   0   7   2   0   0   0   0   0   5   0   0   0   0   0   0   0   0   0  18 100 98 95 93 92 88 86 84 83 82 81 77 72 71 68 66 65 64 
   1   0   0   0   0   0   0   0   0   0   0   3   0   6   0   0   0   0   0   0   0   0   0   0   0   0   0   0   0   5   0  13 100 96 92 90 87 83 82 71 69 68 66 65 53 
  10   5   0   0   0   0   0   0   0   0   0   6   0   0   0   0   0   0  10   0   0   0   0   0   0   0   0   6   0   0   8   6 93 81 73 63 61 44 
   3   0   0   0   0   0   0  10   0   0   0   0   0   0   0   0  10   0   0   0   0   0   7   0   0   0   0   0   0   0   5  14 101 100 99 98 94 93 91 89 82 79 77 68 66 53 
   1   0   0   0   0   0   0   0   4   0   0   0   0   0   0   0   0   0   0   0   0   8   6   0   0   4   0   6   0   0   0  12 101 95 93 92 91 87 85 82 79 77 76 53 
   5   0   0   0   0   0   5   0   0   0   0   0   0   0   0   0   0   0   0   0   3   0   0   0   0   0   0   5   0   0   0  12 93 88 87 86 83 81 79 78 77 75 64 58 
   9   0   3   0   0   0   0   0   0   0   0   0   4   0   0   0   0   0   0   0   0   0   0   0   0   0   0   0   0   0   0  12 95 93 92 90 88 83 82 75 72 65 64 56 
   7   7   0   0  10   0   0   0   0   0   0   0   0   0   0   0   0   0   0   5   0   0   0   0   0   0   0   0   0   8   0  10 100 90 84 83 81 78 69 65 64 52 
   4   0   4   0   0   5   0   0   0   0   0   9   0   0   0  10   5   0   0   0   0   0   6   0   0   0   0   0   0   0   0  12 93 91 83 81 79 78 76 73 70 68 64 63 
   1   6   0   0   0   0   3   0   6   0   0   0   0   0   0   0   0   0   0   0   6   3   0   0   0   0   0   0   0   0   0  12 98 94 90 89 88 86 83 82 80 74 71 56 
  10   0   0   0   0   0   0   0   0   0   0   1   0   0   0   4   0   0   0   0   0   0   6   0   0   0   0   0   0   0   0  16 96 92 91 90 86 85 84 83 82 81 80 79 78 77 75 64 
   9   0   9   0   0   0   0   0   0   0   0   0   0   0   0   0   0   0   6   0   0   0   0   0   0   0   0   0   0   0   0  15 99 97 92 89 86 83 82 81 80 79 78 77 75 65 64 
   8   0   0   0   0   0   0   0   0   0   0   0   0   0   0   8   0   0   0   0   9   0   0   0   0   0   0   0   0   0   0  13 97 92 90 88 87 85 84 83 81 73 69 68 65 
  10   0   0   0   0   0   8   0   0   0   0   0   0   0   0   0   0   4   0   0   0   0   0   0   0   6   7   0   0   0   0  10 98 97 94 86 84 83 80 75 64 56 
   4   0   0   0   0   0   0   0   0   0   0   0   0   0   5   0   0   0   0   0   0   0   0   0   0   0   0   0   0   8   0  14 94 91 90 89 87 85 84 82 81 80 79 78 65 64 
   8   0   0   0   0   0   0  10   0   0   0   0  10   8   0   0   0   0   0   0   0   0   0   0   0   3   0   0   0   0   0  12 96 95 86 85 84 83 82 80 79 76 67 66 
   1   4   0   0   3   0   0   0   0   0   0   5   0   0   0   0   0   0   5   0   0   0   0   0   0   0   0   0   0   8   0  12 97 93 92 90 89 83 79 77 76 75 74 63 
   7   0   8   0   0   3   0   0   8   0   6   0   0   0   0   0   0   0   0   0   5   0   0   0   0   0   0   6   0   0   0  11 91 90 88 84 82 80 79 78 77 74 65 
   3   0   0   0   0   0   0   0   0   0   0   7   0   0   0   6   0   0   0   0   0   0   0   0   0   0   5   5   8   0   0   9 94 90 87 85 83 77 69 67 64 
   6   0   0   0   0   0   0   0   9   0   0   0   0   0   0   0   0   0   6   0   0   0   0   0  10   0   0   0   0   0   0  10 94 89 81 80 79 78 77 76 75 64 
   6   0   0   0   0   0   0   0   0   0   0   0   0   0   0   0   0   9   0   0   0   0   0  10   0   0   0   4   0   0   0   8 92 88 86 82 80 77 66 65 
   8   0   6   0   0   0   0   0   8   0   6   0   0   0   0   0   0   0   0   0   0   0   0   0   0   6   0   0   0   0   0   9 91 84 82 80 79 77 76 75 74 
   6   0   0   0   0   0   0   0   9   8   0   0   0   5   0   0   0   0   6   0   0   0   0   0   0   0   0   8   0   0   6   8 95 91 87 85 80 79 75 64 
   6   0   7   0   0   0   0   0   7   6   0   0   0   0   0   0   0   9   0   0   0   0   0   0   0   8   0   0   0   0   0   8 93 89 87 82 80 77 76 74 
   2   0   0   0   0   0   0   0   0   0   0   0   0   8   0   0   0   0   0   0   0   0   0   0   0   0   8   0   0   0   0   7 88 86 84 81 78 75 64 
   6   0   0   0   0   0   0   0   0   0   0   0   0   0   0   0   0   0   0   0   0   0   4   0   7   0   0   0   0   6   0   7 93 91 82 81 79 75 74 
   5   5   9   0   0   0   0   0   0   0   0   0   0   0   0   0   5   0   0   0   0   0   0   5   0   0   0   0   0   0   0   6 95 84 83 76 70 66 
  10   0   0   0   4   0   6   0   0   8   0   0   0   0   8   0   0   7   0   0   0   0   0   0   0   0   0   0   0   0   0   6 96 81 79 78 77 76 
   5   0   0   0   0   0   0   0   0   0   0   0   0   0   0   0   0   6   0  10   0   6   6   0   0   0   0   0   0   0   0   6 96 87 85 81 78 74 
   6   0   0   0   0   0   0   6   0   0   0   0   0   0   0   0  10   8   0   0   0   0   0   0   0   0   8   0   0   0   0   6 91 89 85 84 82 76 
   5   0   0   0   9   0   0   0   0   0   0   0   0   0   0   0   0   0   0   0   0   0   6   0   0   0   0   0   0   0   0   5 97 89 80 77 76 
   8   0   0   0   0   0   0   0   0   0   0   0   0   0   0   0   0   0   0   0   0   0   0   0   0   0   0   0   0   0   9   5 98 89 85 79 74 
   5   0   5   0   0  10   0   0   0   0   0   0   0   0   0   0   0   0   0   0   0   0   0   0   0   0   0   6   0   0   0   3 90 80 74 
   7   0   0   0   0   0   0   0   0   0   0   0   0   0   0   0   4   0   0   0   0   0   8   0   0   0   0   0   0   0   0   3 85 83 76 
   1   0   0   0   0   0   7   0   0   0  10   0   0   0   0   0   0   0   0   0   0   0   0   0   0   0   0   0   0   0   0   2 87 85 
   9   0   0   0   0   0   0   0   0   0   0   0   0   0   0   0   0   0   0   0   0   0   0   0   0   0   0   0   0   0   0   1 74 
   7   0   0   0   0   0   0   6   0   0   0   0   3   0   0   7   0   8   0   0   3   0   0   0   7   0   0   0   0   0   6   1 76 
  10   0   0   0   0   0   0   0   0   0   0   0   0   0   0   0   0   2   0   0   0   0  10   0   0   0   0   0   0   0   0   1 75 
  10   0   0   0   6   0   0   0   0   0   0   0   0   0   0   0   0   0   3   0   0   0   0   9   0   0   0   0   0   0   0   1 78 
   1   0   0   0   0   0   0   0   0   6   0   0   0   0   0   0   0   0   0   0   0   0   0   0   0   0   0   0   0   0   0   1 80 
   5   0   0   0   0   0   0   0   0   0   0   0   0   0   0  10   8   0   0   9   0   0   0   0   0   0   0   0   0   0   0   1 75 
   1   0   0   0   0   0   8   0   0   0   0   0   0   0   0   0   0   0   0   0   6   0   0   0   0   0   0   0   0   0   0   1 75 
   6   0   0   0   0   0   0   0   5   0   0   0   0   0   0   0   0   0   0   0   0   0   0   0   0   0   0   0   0   0   0   1 79 
   9   0   0   0   0   0   0   0   0   0   6   0   0   0   0   0   3   0   9   0   7   5   0   0   0   0   0   0   0   0   0   1 78 
   3   7   0   0   0   0   6   0   0   0   0   6   0   0   0   0   0   0   0   0   0   0   3   8   7   0   0   0   0   0   0   1 77 
   4   6   0   6   0   0   0   0   0   0   0   0   0   0   0   0   0   6   4   0   0   6   0   4   0   0   0   0   0   0   0   1 102
   5  10   0   0   0   0   0   0   0   0   0   0   6   0   0   0   0   0   4   0   7   0   0   0   0   0   0   0   5   0   0   1 102
   4   0   9   0   0   0   0   0   0   0   0   0   0   0   0   0   0   0   0   0   0   0   0   0   6   0   0   0   0   0   0   1 102
   4   0   0   0   0   0   6   0   0   0   0   8   5   0   0   0   0   0  10   0   0   0   0   0   0   6   8   0   0   0   6   1 102
   6   0   0   0   0   0   0   3   0   0   0   0   0   0   0   0   0   0   8   0   0   0   3   7   0   0   0   0   0   0   0   1 102
   6   0   0   0   0   4   0   0   5   9   0   6   0   0   0   0   0   0   4   0   0   0   0   0   0   0   0   0   0   0   0   1 102
   3   4   0   0   0   0   0   0   0   0   0   0   0   0   0   0   0   0   0   0   0   0   0   0   0   5   0   0   0   0   0   1 102
   6   0   0   0   0   0   0   0   0   0   0   0   0   0   0   0   0   0   0   4   0   7   0   3   4   6   0   0   0   0   6   1 102
   8   0   6   0   0   0   0   0   0   0   0   0   0   0   0   0   7   0   0   0   4   0   0   0   0   0   7   3   0   4   0   1 102
   7   0   0   0   4   0   0   0   0   0   0   0  10   0   0   0   0   0   0   0   6   8   0   0   0   7   0   0   0   0   0   1 102
   9   0   0   0   0   0   0   0   0   0   0   0   4   0   0   0   0   9   0   0   0   0   0   0   0  10   0   5   0   0   0   1 102
   6   0   0   0   0   0   0   0   0   0   0   0   0   0   0   6   0   0   0   0   0   5   0   0   0   0   0   0   0   0   0   1 102
   1   0   0   0   0   0   0   0   0   0   0   0   0   0   0   0   0   0   0   0   9   0   0   3   0   0   0   0   0   0   0   1 102
   1   0   0   5   9   6   0   0   0   0   0   9   0   6   8   0   0   0   0   0   0   0   0   0   0   0   7   0   0   0   7   1 102
  10   0   0   0   0   0   0   0   0   0   0   0   0   5   0   0   5   0   0   0   0   0   0   0   0   0   0   0   0   0   0   1 102
  10   0   0   0   0   0   7   0   0   0   0   0   0   0   0   0   0   0   0   0   0   7   5   0   0   0   0   7   0   0   0   1 102
  10   4   7   0   0   6   0   0   3   0   0   9   0   0   0   7   0   0   0   0   0  10   0   5   0   0   0   0   0   8   0   1 102
   3   0   0   0   0   0   0   0   0   0   0   0   0   0   0   0   0   0   0   0   0   0   3   7   0   0   0   0   0   3   0   1 102
  10  10   0   0   0   0   0   0   0   0   5  10   0   0   7   0   6   0   0   0   0   0   0   0   0   0   0   0   0   0   0   1 102
   8   0   4   0   5   0   0   0   0   0   0   0   0   0   0   0   0   0   0   0   0   0   0   0   0   0   0   0   0   6   0   1 102
   6  10   0   0   0   0   0   0   0   5   0   0   0   0   0   0   0   0   0   0   8   6  10   0   0   0   0   0   0   0   0   1 102
   4   0   0   0   0   5   0   0   0   7   0   0   0   0   0   0   0   0   0   0   0   0   0   0   0   0   0   0   0   0   0   1 102
   5   0   0   0   0   0   0   0   0   5   0   0   0   0   0   0   0   0   0   0   0   0   0   0   0   0   0   0   0   0   0   1 102
   6   0   0   7   0   0   0   0   0   0   0   0   0   0   0   0   0   0   0   0   4   0   0   0   0   5   0   0   0   0   0   1 102
  10   4   0   7   0   0   0   0   3   0   0   0   0   0   0   0   0   0   0   7   0   0   0   0   7   6   0   0   0   0   0   1 102
  10   0   0   0   0   0   0   0   0   0   0   0   0   0   0   0   0   0   0   0   0   0   0   0   0   0   0   0   0   0   0   1 102
   2   4   0   8   0   0   0   0   0   0   0   0   0   0   0   0   0   0   0   7   0   0   3   0   0  10   0   0   0   5   0   1 102
   7   0   0   0   0   0   0   0   5   0   0   0   0   0   0   0   0   4   0   0   0   0   0   0   4   0   0   0  10   0   0   1 102
   0   0   0   0   0   0   0   0   0   0   0   0   0   0   0   0   0   0   0   0   0   0   0   0   0   0   0   0   0   0   0   0 
